NAME /Users/henri/Research/solvers/instances/idol-instances/robust/collection/spp_dkp_Lefebvre_et_al_2026/shortest_path_11_7/uncertainty_sets/discrete_knapsack
ROWS
 N  OBJ
 L  primal_lower
COLUMNS
    MARKER    'MARKER'                 'INTORG'
    y[0,1]     OBJ        0
    y[0,1]     primal_lower -1.3
    y[0,2]     OBJ        0
    y[0,2]     primal_lower -1.07
    y[0,3]     OBJ        0
    y[0,3]     primal_lower -4.01
    y[0,4]     OBJ        0
    y[0,4]     primal_lower -3.86
    y[0,5]     OBJ        0
    y[0,5]     primal_lower -2.96
    y[0,7]     OBJ        0
    y[0,7]     primal_lower -2.45
    y[0,9]     OBJ        0
    y[0,9]     primal_lower -2.37
    y[0,10]    OBJ        0
    y[0,10]    primal_lower -0.91
    y[1,0]     OBJ        0
    y[1,0]     primal_lower -3.33
    y[1,2]     OBJ        0
    y[1,2]     primal_lower -3.88
    y[1,3]     OBJ        0
    y[1,3]     primal_lower -3.12
    y[1,6]     OBJ        0
    y[1,6]     primal_lower -2.16
    y[1,7]     OBJ        0
    y[1,7]     primal_lower -1.91
    y[1,8]     OBJ        0
    y[1,8]     primal_lower -3.47
    y[1,9]     OBJ        0
    y[1,9]     primal_lower -3.66
    y[1,10]    OBJ        0
    y[1,10]    primal_lower -0.99
    y[2,0]     OBJ        0
    y[2,0]     primal_lower -4.17
    y[2,1]     OBJ        0
    y[2,1]     primal_lower -0.26
    y[2,3]     OBJ        0
    y[2,3]     primal_lower -1.25
    y[2,4]     OBJ        0
    y[2,4]     primal_lower -1.35
    y[2,5]     OBJ        0
    y[2,5]     primal_lower -3.04
    y[2,6]     OBJ        0
    y[2,6]     primal_lower -3.06
    y[2,7]     OBJ        0
    y[2,7]     primal_lower -4.08
    y[2,9]     OBJ        0
    y[2,9]     primal_lower -2.63
    y[2,10]    OBJ        0
    y[2,10]    primal_lower -1.54
    y[3,0]     OBJ        0
    y[3,0]     primal_lower -1.82
    y[3,1]     OBJ        0
    y[3,1]     primal_lower -3.92
    y[3,2]     OBJ        0
    y[3,2]     primal_lower -1.09
    y[3,4]     OBJ        0
    y[3,4]     primal_lower -1.31
    y[3,5]     OBJ        0
    y[3,5]     primal_lower -0.33
    y[3,6]     OBJ        0
    y[3,6]     primal_lower -1.09
    y[3,7]     OBJ        0
    y[3,7]     primal_lower -3.94
    y[3,8]     OBJ        0
    y[3,8]     primal_lower -3.65
    y[3,9]     OBJ        0
    y[3,9]     primal_lower -2.76
    y[3,10]    OBJ        0
    y[3,10]    primal_lower -4.29
    y[4,0]     OBJ        0
    y[4,0]     primal_lower -4.07
    y[4,2]     OBJ        0
    y[4,2]     primal_lower -3.7
    y[4,3]     OBJ        0
    y[4,3]     primal_lower -3.99
    y[4,5]     OBJ        0
    y[4,5]     primal_lower -2.88
    y[4,7]     OBJ        0
    y[4,7]     primal_lower -1.7
    y[4,9]     OBJ        0
    y[4,9]     primal_lower -2.52
    y[4,10]    OBJ        0
    y[4,10]    primal_lower -1.63
    y[5,0]     OBJ        0
    y[5,0]     primal_lower -2.08
    y[5,2]     OBJ        0
    y[5,2]     primal_lower -1.56
    y[5,3]     OBJ        0
    y[5,3]     primal_lower -0.72
    y[5,4]     OBJ        0
    y[5,4]     primal_lower -3.87
    y[5,7]     OBJ        0
    y[5,7]     primal_lower -2.35
    y[5,9]     OBJ        0
    y[5,9]     primal_lower -3.56
    y[6,1]     OBJ        0
    y[6,1]     primal_lower -2.46
    y[6,2]     OBJ        0
    y[6,2]     primal_lower -0.03
    y[6,3]     OBJ        0
    y[6,3]     primal_lower -2.72
    y[6,7]     OBJ        0
    y[6,7]     primal_lower -3.33
    y[6,8]     OBJ        0
    y[6,8]     primal_lower -1.38
    y[6,9]     OBJ        0
    y[6,9]     primal_lower -0.12
    y[6,10]    OBJ        0
    y[6,10]    primal_lower -0.39
    y[7,0]     OBJ        0
    y[7,0]     primal_lower -1.11
    y[7,1]     OBJ        0
    y[7,1]     primal_lower -2.67
    y[7,2]     OBJ        0
    y[7,2]     primal_lower -3.6
    y[7,3]     OBJ        0
    y[7,3]     primal_lower -0.04
    y[7,4]     OBJ        0
    y[7,4]     primal_lower -2.97
    y[7,5]     OBJ        0
    y[7,5]     primal_lower -0.59
    y[7,6]     OBJ        0
    y[7,6]     primal_lower -4.02
    y[7,9]     OBJ        0
    y[7,9]     primal_lower -2.69
    y[7,10]    OBJ        0
    y[7,10]    primal_lower -4.28
    y[8,1]     OBJ        0
    y[8,1]     primal_lower -1.17
    y[8,3]     OBJ        0
    y[8,3]     primal_lower -2.57
    y[8,6]     OBJ        0
    y[8,6]     primal_lower -2.26
    y[8,9]     OBJ        0
    y[8,9]     primal_lower -3.18
    y[8,10]    OBJ        0
    y[8,10]    primal_lower -2.72
    y[9,0]     OBJ        0
    y[9,0]     primal_lower -2.6
    y[9,1]     OBJ        0
    y[9,1]     primal_lower -4.2
    y[9,2]     OBJ        0
    y[9,2]     primal_lower -2.64
    y[9,3]     OBJ        0
    y[9,3]     primal_lower -2.88
    y[9,4]     OBJ        0
    y[9,4]     primal_lower -3.3
    y[9,5]     OBJ        0
    y[9,5]     primal_lower -0.28
    y[9,6]     OBJ        0
    y[9,6]     primal_lower -3.79
    y[9,7]     OBJ        0
    y[9,7]     primal_lower -3.08
    y[9,8]     OBJ        0
    y[9,8]     primal_lower -3.9
    y[9,10]    OBJ        0
    y[9,10]    primal_lower -2.3
    y[10,0]    OBJ        0
    y[10,0]    primal_lower -0.02
    y[10,1]    OBJ        0
    y[10,1]    primal_lower -3.48
    y[10,2]    OBJ        0
    y[10,2]    primal_lower -2.45
    y[10,3]    OBJ        0
    y[10,3]    primal_lower -4.01
    y[10,4]    OBJ        0
    y[10,4]    primal_lower -0.56
    y[10,6]    OBJ        0
    y[10,6]    primal_lower -1.09
    y[10,7]    OBJ        0
    y[10,7]    primal_lower -3.21
    y[10,8]    OBJ        0
    y[10,8]    primal_lower -0.31
    y[10,9]    OBJ        0
    y[10,9]    primal_lower -2.88
    u[0,1]     OBJ        0
    u[0,1]     primal_lower 69
    u[0,2]     OBJ        0
    u[0,2]     primal_lower 2
    u[0,3]     OBJ        0
    u[0,3]     primal_lower 66
    u[0,4]     OBJ        0
    u[0,4]     primal_lower 18
    u[0,5]     OBJ        0
    u[0,5]     primal_lower 4
    u[0,7]     OBJ        0
    u[0,7]     primal_lower 68
    u[0,9]     OBJ        0
    u[0,9]     primal_lower 25
    u[0,10]    OBJ        0
    u[0,10]    primal_lower 60
    u[1,0]     OBJ        0
    u[1,0]     primal_lower 26
    u[1,2]     OBJ        0
    u[1,2]     primal_lower 9
    u[1,3]     OBJ        0
    u[1,3]     primal_lower 95
    u[1,6]     OBJ        0
    u[1,6]     primal_lower 93
    u[1,7]     OBJ        0
    u[1,7]     primal_lower 63
    u[1,8]     OBJ        0
    u[1,8]     primal_lower 57
    u[1,9]     OBJ        0
    u[1,9]     primal_lower 21
    u[1,10]    OBJ        0
    u[1,10]    primal_lower 3
    u[2,0]     OBJ        0
    u[2,0]     primal_lower 15
    u[2,1]     OBJ        0
    u[2,1]     primal_lower 26
    u[2,3]     OBJ        0
    u[2,3]     primal_lower 60
    u[2,4]     OBJ        0
    u[2,4]     primal_lower 54
    u[2,5]     OBJ        0
    u[2,5]     primal_lower 73
    u[2,6]     OBJ        0
    u[2,6]     primal_lower 27
    u[2,7]     OBJ        0
    u[2,7]     primal_lower 33
    u[2,9]     OBJ        0
    u[2,9]     primal_lower 47
    u[2,10]    OBJ        0
    u[2,10]    primal_lower 34
    u[3,0]     OBJ        0
    u[3,0]     primal_lower 87
    u[3,1]     OBJ        0
    u[3,1]     primal_lower 58
    u[3,2]     OBJ        0
    u[3,2]     primal_lower 62
    u[3,4]     OBJ        0
    u[3,4]     primal_lower 78
    u[3,5]     OBJ        0
    u[3,5]     primal_lower 51
    u[3,6]     OBJ        0
    u[3,6]     primal_lower 30
    u[3,7]     OBJ        0
    u[3,7]     primal_lower 76
    u[3,8]     OBJ        0
    u[3,8]     primal_lower 79
    u[3,9]     OBJ        0
    u[3,9]     primal_lower 34
    u[3,10]    OBJ        0
    u[3,10]    primal_lower 74
    u[4,0]     OBJ        0
    u[4,0]     primal_lower 74
    u[4,2]     OBJ        0
    u[4,2]     primal_lower 15
    u[4,3]     OBJ        0
    u[4,3]     primal_lower 46
    u[4,5]     OBJ        0
    u[4,5]     primal_lower 52
    u[4,7]     OBJ        0
    u[4,7]     primal_lower 17
    u[4,9]     OBJ        0
    u[4,9]     primal_lower 31
    u[4,10]    OBJ        0
    u[4,10]    primal_lower 85
    u[5,0]     OBJ        0
    u[5,0]     primal_lower 25
    u[5,2]     OBJ        0
    u[5,2]     primal_lower 35
    u[5,3]     OBJ        0
    u[5,3]     primal_lower 54
    u[5,4]     OBJ        0
    u[5,4]     primal_lower 24
    u[5,7]     OBJ        0
    u[5,7]     primal_lower 92
    u[5,9]     OBJ        0
    u[5,9]     primal_lower 32
    u[6,1]     OBJ        0
    u[6,1]     primal_lower 94
    u[6,2]     OBJ        0
    u[6,2]     primal_lower 25
    u[6,3]     OBJ        0
    u[6,3]     primal_lower 14
    u[6,7]     OBJ        0
    u[6,7]     primal_lower 90
    u[6,8]     OBJ        0
    u[6,8]     primal_lower 64
    u[6,9]     OBJ        0
    u[6,9]     primal_lower 24
    u[6,10]    OBJ        0
    u[6,10]    primal_lower 93
    u[7,0]     OBJ        0
    u[7,0]     primal_lower 75
    u[7,1]     OBJ        0
    u[7,1]     primal_lower 3
    u[7,2]     OBJ        0
    u[7,2]     primal_lower 38
    u[7,3]     OBJ        0
    u[7,3]     primal_lower 77
    u[7,4]     OBJ        0
    u[7,4]     primal_lower 12
    u[7,5]     OBJ        0
    u[7,5]     primal_lower 27
    u[7,6]     OBJ        0
    u[7,6]     primal_lower 65
    u[7,9]     OBJ        0
    u[7,9]     primal_lower 9
    u[7,10]    OBJ        0
    u[7,10]    primal_lower 88
    u[8,1]     OBJ        0
    u[8,1]     primal_lower 57
    u[8,3]     OBJ        0
    u[8,3]     primal_lower 52
    u[8,6]     OBJ        0
    u[8,6]     primal_lower 19
    u[8,9]     OBJ        0
    u[8,9]     primal_lower 99
    u[8,10]    OBJ        0
    u[8,10]    primal_lower 58
    u[9,0]     OBJ        0
    u[9,0]     primal_lower 87
    u[9,1]     OBJ        0
    u[9,1]     primal_lower 11
    u[9,2]     OBJ        0
    u[9,2]     primal_lower 25
    u[9,3]     OBJ        0
    u[9,3]     primal_lower 6
    u[9,4]     OBJ        0
    u[9,4]     primal_lower 45
    u[9,5]     OBJ        0
    u[9,5]     primal_lower 22
    u[9,6]     OBJ        0
    u[9,6]     primal_lower 71
    u[9,7]     OBJ        0
    u[9,7]     primal_lower 74
    u[9,8]     OBJ        0
    u[9,8]     primal_lower 18
    u[9,10]    OBJ        0
    u[9,10]    primal_lower 32
    u[10,0]    OBJ        0
    u[10,0]    primal_lower 11
    u[10,1]    OBJ        0
    u[10,1]    primal_lower 93
    u[10,2]    OBJ        0
    u[10,2]    primal_lower 80
    u[10,3]    OBJ        0
    u[10,3]    primal_lower 15
    u[10,4]    OBJ        0
    u[10,4]    primal_lower 29
    u[10,6]    OBJ        0
    u[10,6]    primal_lower 68
    u[10,7]    OBJ        0
    u[10,7]    primal_lower 29
    u[10,8]    OBJ        0
    u[10,8]    primal_lower 63
    u[10,9]    OBJ        0
    u[10,9]    primal_lower 79
    MARKER    'MARKER'                 'INTEND'
RHS
    RHS       primal_lower 381
BOUNDS
 LI BND       y[0,1]     0
 UI BND       y[0,1]     1
 LI BND       y[0,2]     0
 UI BND       y[0,2]     1
 LI BND       y[0,3]     0
 UI BND       y[0,3]     1
 LI BND       y[0,4]     0
 UI BND       y[0,4]     1
 LI BND       y[0,5]     0
 UI BND       y[0,5]     1
 LI BND       y[0,7]     0
 UI BND       y[0,7]     1
 LI BND       y[0,9]     0
 UI BND       y[0,9]     1
 LI BND       y[0,10]    0
 UI BND       y[0,10]    1
 LI BND       y[1,0]     0
 UI BND       y[1,0]     1
 LI BND       y[1,2]     0
 UI BND       y[1,2]     1
 LI BND       y[1,3]     0
 UI BND       y[1,3]     1
 LI BND       y[1,6]     0
 UI BND       y[1,6]     1
 LI BND       y[1,7]     0
 UI BND       y[1,7]     1
 LI BND       y[1,8]     0
 UI BND       y[1,8]     1
 LI BND       y[1,9]     0
 UI BND       y[1,9]     1
 LI BND       y[1,10]    0
 UI BND       y[1,10]    1
 LI BND       y[2,0]     0
 UI BND       y[2,0]     1
 LI BND       y[2,1]     0
 UI BND       y[2,1]     1
 LI BND       y[2,3]     0
 UI BND       y[2,3]     1
 LI BND       y[2,4]     0
 UI BND       y[2,4]     1
 LI BND       y[2,5]     0
 UI BND       y[2,5]     1
 LI BND       y[2,6]     0
 UI BND       y[2,6]     1
 LI BND       y[2,7]     0
 UI BND       y[2,7]     1
 LI BND       y[2,9]     0
 UI BND       y[2,9]     1
 LI BND       y[2,10]    0
 UI BND       y[2,10]    1
 LI BND       y[3,0]     0
 UI BND       y[3,0]     1
 LI BND       y[3,1]     0
 UI BND       y[3,1]     1
 LI BND       y[3,2]     0
 UI BND       y[3,2]     1
 LI BND       y[3,4]     0
 UI BND       y[3,4]     1
 LI BND       y[3,5]     0
 UI BND       y[3,5]     1
 LI BND       y[3,6]     0
 UI BND       y[3,6]     1
 LI BND       y[3,7]     0
 UI BND       y[3,7]     1
 LI BND       y[3,8]     0
 UI BND       y[3,8]     1
 LI BND       y[3,9]     0
 UI BND       y[3,9]     1
 LI BND       y[3,10]    0
 UI BND       y[3,10]    1
 LI BND       y[4,0]     0
 UI BND       y[4,0]     1
 LI BND       y[4,2]     0
 UI BND       y[4,2]     1
 LI BND       y[4,3]     0
 UI BND       y[4,3]     1
 LI BND       y[4,5]     0
 UI BND       y[4,5]     1
 LI BND       y[4,7]     0
 UI BND       y[4,7]     1
 LI BND       y[4,9]     0
 UI BND       y[4,9]     1
 LI BND       y[4,10]    0
 UI BND       y[4,10]    1
 LI BND       y[5,0]     0
 UI BND       y[5,0]     1
 LI BND       y[5,2]     0
 UI BND       y[5,2]     1
 LI BND       y[5,3]     0
 UI BND       y[5,3]     1
 LI BND       y[5,4]     0
 UI BND       y[5,4]     1
 LI BND       y[5,7]     0
 UI BND       y[5,7]     1
 LI BND       y[5,9]     0
 UI BND       y[5,9]     1
 LI BND       y[6,1]     0
 UI BND       y[6,1]     1
 LI BND       y[6,2]     0
 UI BND       y[6,2]     1
 LI BND       y[6,3]     0
 UI BND       y[6,3]     1
 LI BND       y[6,7]     0
 UI BND       y[6,7]     1
 LI BND       y[6,8]     0
 UI BND       y[6,8]     1
 LI BND       y[6,9]     0
 UI BND       y[6,9]     1
 LI BND       y[6,10]    0
 UI BND       y[6,10]    1
 LI BND       y[7,0]     0
 UI BND       y[7,0]     1
 LI BND       y[7,1]     0
 UI BND       y[7,1]     1
 LI BND       y[7,2]     0
 UI BND       y[7,2]     1
 LI BND       y[7,3]     0
 UI BND       y[7,3]     1
 LI BND       y[7,4]     0
 UI BND       y[7,4]     1
 LI BND       y[7,5]     0
 UI BND       y[7,5]     1
 LI BND       y[7,6]     0
 UI BND       y[7,6]     1
 LI BND       y[7,9]     0
 UI BND       y[7,9]     1
 LI BND       y[7,10]    0
 UI BND       y[7,10]    1
 LI BND       y[8,1]     0
 UI BND       y[8,1]     1
 LI BND       y[8,3]     0
 UI BND       y[8,3]     1
 LI BND       y[8,6]     0
 UI BND       y[8,6]     1
 LI BND       y[8,9]     0
 UI BND       y[8,9]     1
 LI BND       y[8,10]    0
 UI BND       y[8,10]    1
 LI BND       y[9,0]     0
 UI BND       y[9,0]     1
 LI BND       y[9,1]     0
 UI BND       y[9,1]     1
 LI BND       y[9,2]     0
 UI BND       y[9,2]     1
 LI BND       y[9,3]     0
 UI BND       y[9,3]     1
 LI BND       y[9,4]     0
 UI BND       y[9,4]     1
 LI BND       y[9,5]     0
 UI BND       y[9,5]     1
 LI BND       y[9,6]     0
 UI BND       y[9,6]     1
 LI BND       y[9,7]     0
 UI BND       y[9,7]     1
 LI BND       y[9,8]     0
 UI BND       y[9,8]     1
 LI BND       y[9,10]    0
 UI BND       y[9,10]    1
 LI BND       y[10,0]    0
 UI BND       y[10,0]    1
 LI BND       y[10,1]    0
 UI BND       y[10,1]    1
 LI BND       y[10,2]    0
 UI BND       y[10,2]    1
 LI BND       y[10,3]    0
 UI BND       y[10,3]    1
 LI BND       y[10,4]    0
 UI BND       y[10,4]    1
 LI BND       y[10,6]    0
 UI BND       y[10,6]    1
 LI BND       y[10,7]    0
 UI BND       y[10,7]    1
 LI BND       y[10,8]    0
 UI BND       y[10,8]    1
 LI BND       y[10,9]    0
 UI BND       y[10,9]    1
 LI BND       u[0,1]     0
 UI BND       u[0,1]     1
 LI BND       u[0,2]     0
 UI BND       u[0,2]     1
 LI BND       u[0,3]     0
 UI BND       u[0,3]     1
 LI BND       u[0,4]     0
 UI BND       u[0,4]     1
 LI BND       u[0,5]     0
 UI BND       u[0,5]     1
 LI BND       u[0,7]     0
 UI BND       u[0,7]     1
 LI BND       u[0,9]     0
 UI BND       u[0,9]     1
 LI BND       u[0,10]    0
 UI BND       u[0,10]    1
 LI BND       u[1,0]     0
 UI BND       u[1,0]     1
 LI BND       u[1,2]     0
 UI BND       u[1,2]     1
 LI BND       u[1,3]     0
 UI BND       u[1,3]     1
 LI BND       u[1,6]     0
 UI BND       u[1,6]     1
 LI BND       u[1,7]     0
 UI BND       u[1,7]     1
 LI BND       u[1,8]     0
 UI BND       u[1,8]     1
 LI BND       u[1,9]     0
 UI BND       u[1,9]     1
 LI BND       u[1,10]    0
 UI BND       u[1,10]    1
 LI BND       u[2,0]     0
 UI BND       u[2,0]     1
 LI BND       u[2,1]     0
 UI BND       u[2,1]     1
 LI BND       u[2,3]     0
 UI BND       u[2,3]     1
 LI BND       u[2,4]     0
 UI BND       u[2,4]     1
 LI BND       u[2,5]     0
 UI BND       u[2,5]     1
 LI BND       u[2,6]     0
 UI BND       u[2,6]     1
 LI BND       u[2,7]     0
 UI BND       u[2,7]     1
 LI BND       u[2,9]     0
 UI BND       u[2,9]     1
 LI BND       u[2,10]    0
 UI BND       u[2,10]    1
 LI BND       u[3,0]     0
 UI BND       u[3,0]     1
 LI BND       u[3,1]     0
 UI BND       u[3,1]     1
 LI BND       u[3,2]     0
 UI BND       u[3,2]     1
 LI BND       u[3,4]     0
 UI BND       u[3,4]     1
 LI BND       u[3,5]     0
 UI BND       u[3,5]     1
 LI BND       u[3,6]     0
 UI BND       u[3,6]     1
 LI BND       u[3,7]     0
 UI BND       u[3,7]     1
 LI BND       u[3,8]     0
 UI BND       u[3,8]     1
 LI BND       u[3,9]     0
 UI BND       u[3,9]     1
 LI BND       u[3,10]    0
 UI BND       u[3,10]    1
 LI BND       u[4,0]     0
 UI BND       u[4,0]     1
 LI BND       u[4,2]     0
 UI BND       u[4,2]     1
 LI BND       u[4,3]     0
 UI BND       u[4,3]     1
 LI BND       u[4,5]     0
 UI BND       u[4,5]     1
 LI BND       u[4,7]     0
 UI BND       u[4,7]     1
 LI BND       u[4,9]     0
 UI BND       u[4,9]     1
 LI BND       u[4,10]    0
 UI BND       u[4,10]    1
 LI BND       u[5,0]     0
 UI BND       u[5,0]     1
 LI BND       u[5,2]     0
 UI BND       u[5,2]     1
 LI BND       u[5,3]     0
 UI BND       u[5,3]     1
 LI BND       u[5,4]     0
 UI BND       u[5,4]     1
 LI BND       u[5,7]     0
 UI BND       u[5,7]     1
 LI BND       u[5,9]     0
 UI BND       u[5,9]     1
 LI BND       u[6,1]     0
 UI BND       u[6,1]     1
 LI BND       u[6,2]     0
 UI BND       u[6,2]     1
 LI BND       u[6,3]     0
 UI BND       u[6,3]     1
 LI BND       u[6,7]     0
 UI BND       u[6,7]     1
 LI BND       u[6,8]     0
 UI BND       u[6,8]     1
 LI BND       u[6,9]     0
 UI BND       u[6,9]     1
 LI BND       u[6,10]    0
 UI BND       u[6,10]    1
 LI BND       u[7,0]     0
 UI BND       u[7,0]     1
 LI BND       u[7,1]     0
 UI BND       u[7,1]     1
 LI BND       u[7,2]     0
 UI BND       u[7,2]     1
 LI BND       u[7,3]     0
 UI BND       u[7,3]     1
 LI BND       u[7,4]     0
 UI BND       u[7,4]     1
 LI BND       u[7,5]     0
 UI BND       u[7,5]     1
 LI BND       u[7,6]     0
 UI BND       u[7,6]     1
 LI BND       u[7,9]     0
 UI BND       u[7,9]     1
 LI BND       u[7,10]    0
 UI BND       u[7,10]    1
 LI BND       u[8,1]     0
 UI BND       u[8,1]     1
 LI BND       u[8,3]     0
 UI BND       u[8,3]     1
 LI BND       u[8,6]     0
 UI BND       u[8,6]     1
 LI BND       u[8,9]     0
 UI BND       u[8,9]     1
 LI BND       u[8,10]    0
 UI BND       u[8,10]    1
 LI BND       u[9,0]     0
 UI BND       u[9,0]     1
 LI BND       u[9,1]     0
 UI BND       u[9,1]     1
 LI BND       u[9,2]     0
 UI BND       u[9,2]     1
 LI BND       u[9,3]     0
 UI BND       u[9,3]     1
 LI BND       u[9,4]     0
 UI BND       u[9,4]     1
 LI BND       u[9,5]     0
 UI BND       u[9,5]     1
 LI BND       u[9,6]     0
 UI BND       u[9,6]     1
 LI BND       u[9,7]     0
 UI BND       u[9,7]     1
 LI BND       u[9,8]     0
 UI BND       u[9,8]     1
 LI BND       u[9,10]    0
 UI BND       u[9,10]    1
 LI BND       u[10,0]    0
 UI BND       u[10,0]    1
 LI BND       u[10,1]    0
 UI BND       u[10,1]    1
 LI BND       u[10,2]    0
 UI BND       u[10,2]    1
 LI BND       u[10,3]    0
 UI BND       u[10,3]    1
 LI BND       u[10,4]    0
 UI BND       u[10,4]    1
 LI BND       u[10,6]    0
 UI BND       u[10,6]    1
 LI BND       u[10,7]    0
 UI BND       u[10,7]    1
 LI BND       u[10,8]    0
 UI BND       u[10,8]    1
 LI BND       u[10,9]    0
 UI BND       u[10,9]    1
ENDATA
